c input/binary/cnf_noALO/10x10_120.cnf
s SATISFIABLE
c process-time: 0.01 seconds
-----
c input/binary/cnf_noALO/10x10_121.cnf
s SATISFIABLE
c process-time: 0.01 seconds
-----
c input/binary/cnf_noALO/10x10_122.cnf
s SATISFIABLE
c process-time: 0.01 seconds
-----
c input/binary/cnf_noALO/10x10_123.cnf
s SATISFIABLE
c process-time: 0.01 seconds
-----
c input/binary/cnf_noALO/10x10_124.cnf
s SATISFIABLE
c process-time: 0.01 seconds
-----
c input/binary/cnf_noALO/10x10_130.cnf
s SATISFIABLE
c process-time: 0.01 seconds
-----
c input/binary/cnf_noALO/10x10_131.cnf
s SATISFIABLE
c process-time: 0.01 seconds
-----
c input/binary/cnf_noALO/10x10_132.cnf
s SATISFIABLE
c process-time: 0.02 seconds
-----
c input/binary/cnf_noALO/10x10_133.cnf
s SATISFIABLE
c process-time: 0.01 seconds
-----
c input/binary/cnf_noALO/10x10_134.cnf
s SATISFIABLE
c process-time: 0.02 seconds
-----
c input/binary/cnf_noALO/10x10_135.cnf
s SATISFIABLE
c process-time: 0.01 seconds
-----
c input/binary/cnf_noALO/10x10_136.cnf
s SATISFIABLE
c process-time: 0.01 seconds
-----
c input/binary/cnf_noALO/10x10_137.cnf
s SATISFIABLE
c process-time: 0.01 seconds
-----
c input/binary/cnf_noALO/10x10_138.cnf
s SATISFIABLE
c process-time: 0.01 seconds
-----
c input/binary/cnf_noALO/10x10_139.cnf
s SATISFIABLE
c process-time: 0.03 seconds
-----
c input/binary/cnf_noALO/10x10_140.cnf
s SATISFIABLE
c process-time: 0.01 seconds
-----
c input/binary/cnf_noALO/10x10_141.cnf
s SATISFIABLE
c process-time: 0.01 seconds
-----
c input/binary/cnf_noALO/10x10_142.cnf
s SATISFIABLE
c process-time: 0.02 seconds
-----
c input/binary/cnf_noALO/10x10_143.cnf
s SATISFIABLE
c process-time: 0.01 seconds
-----
c input/binary/cnf_noALO/10x10_144.cnf
s SATISFIABLE
c process-time: 0.01 seconds
-----
c input/binary/cnf_noALO/10x10_145.cnf
s SATISFIABLE
c process-time: 0.01 seconds
-----
c input/binary/cnf_noALO/10x15_387.cnf
s SATISFIABLE
c process-time: 0.02 seconds
-----
c input/binary/cnf_noALO/10x15_388.cnf
s SATISFIABLE
c process-time: 0.39 seconds
-----
c input/binary/cnf_noALO/10x15_389.cnf
s SATISFIABLE
c process-time: 0.27 seconds
-----
c input/binary/cnf_noALO/10x15_390.cnf
s SATISFIABLE
c process-time: 0.45 seconds
-----
c input/binary/cnf_noALO/10x15_396.cnf
s SATISFIABLE
c process-time: 0.10 seconds
-----
c input/binary/cnf_noALO/10x15_397.cnf
s SATISFIABLE
c process-time: 0.08 seconds
-----
c input/binary/cnf_noALO/10x15_398.cnf
s SATISFIABLE
c process-time: 2s 1.82 seconds
-----
c input/binary/cnf_noALO/10x15_399.cnf
s SATISFIABLE
c process-time: 0.04 seconds
-----
c input/binary/cnf_noALO/10x15_400.cnf
s SATISFIABLE
c process-time: 1s 0.86 seconds
-----
c input/binary/cnf_noALO/10x18_186.cnf
s SATISFIABLE
c process-time: 0.44 seconds
-----
c input/binary/cnf_noALO/10x18_187.cnf
s SATISFIABLE
c process-time: 4s 3.72 seconds
-----
c input/binary/cnf_noALO/10x18_198.cnf
s SATISFIABLE
c process-time: 0.03 seconds
-----
c input/binary/cnf_noALO/10x18_199.cnf
s SATISFIABLE
c process-time: 0.03 seconds
-----
c input/binary/cnf_noALO/10x18_200.cnf
s SATISFIABLE
c process-time: 0.26 seconds
-----
c input/binary/cnf_noALO/10x18_208.cnf
s SATISFIABLE
c process-time: 0.03 seconds
-----
c input/binary/cnf_noALO/10x18_209.cnf
s SATISFIABLE
c process-time: 0.25 seconds
-----
c input/binary/cnf_noALO/10x18_414.cnf
s SATISFIABLE
c process-time: 0.09 seconds
-----
c input/binary/cnf_noALO/10x18_415.cnf
s SATISFIABLE
c process-time: 0.02 seconds
-----
c input/binary/cnf_noALO/10x18_416.cnf
s SATISFIABLE
c process-time: 0.27 seconds
-----
c input/binary/cnf_noALO/10x18_417.cnf
s SATISFIABLE
c process-time: 0.49 seconds
-----
c input/binary/cnf_noALO/11x11_120.cnf
s SATISFIABLE
c process-time: 0.01 seconds
-----
c input/binary/cnf_noALO/11x11_121.cnf
s SATISFIABLE
c process-time: 0.01 seconds
-----
c input/binary/cnf_noALO/11x11_122.cnf
s SATISFIABLE
c process-time: 0.01 seconds
-----
c input/binary/cnf_noALO/11x11_123.cnf
s SATISFIABLE
c process-time: 0.04 seconds
-----
c input/binary/cnf_noALO/11x11_124.cnf
s SATISFIABLE
c process-time: 0.01 seconds
-----
c input/binary/cnf_noALO/11x11_130.cnf
s SATISFIABLE
c process-time: 0.01 seconds
-----
c input/binary/cnf_noALO/11x11_131.cnf
s SATISFIABLE
c process-time: 0.02 seconds
-----
c input/binary/cnf_noALO/11x11_132.cnf
s SATISFIABLE
c process-time: 0.08 seconds
-----
c input/binary/cnf_noALO/11x11_133.cnf
s SATISFIABLE
c process-time: 0.01 seconds
-----
c input/binary/cnf_noALO/11x11_134.cnf
s SATISFIABLE
c process-time: 0.01 seconds
-----
c input/binary/cnf_noALO/11x11_135.cnf
s SATISFIABLE
c process-time: 0.02 seconds
-----
c input/binary/cnf_noALO/11x11_136.cnf
s SATISFIABLE
c process-time: 0.04 seconds
-----
c input/binary/cnf_noALO/11x11_137.cnf
s SATISFIABLE
c process-time: 0.02 seconds
-----
c input/binary/cnf_noALO/11x11_138.cnf
s SATISFIABLE
c process-time: 0.02 seconds
-----
c input/binary/cnf_noALO/11x11_139.cnf
s SATISFIABLE
c process-time: 0.03 seconds
-----
c input/binary/cnf_noALO/11x11_140.cnf
s SATISFIABLE
c process-time: 0.03 seconds
-----
c input/binary/cnf_noALO/11x11_141.cnf
s SATISFIABLE
c process-time: 0.02 seconds
-----
c input/binary/cnf_noALO/11x11_142.cnf
s SATISFIABLE
c process-time: 0.01 seconds
-----
c input/binary/cnf_noALO/11x11_143.cnf
s SATISFIABLE
c process-time: 0.06 seconds
-----
c input/binary/cnf_noALO/11x11_144.cnf
s SATISFIABLE
c process-time: 0.04 seconds
-----
c input/binary/cnf_noALO/11x11_145.cnf
s SATISFIABLE
c process-time: 0.01 seconds
-----
c input/binary/cnf_noALO/12x12_120.cnf
s SATISFIABLE
c process-time: 0.01 seconds
-----
c input/binary/cnf_noALO/12x12_121.cnf
s SATISFIABLE
c process-time: 0.20 seconds
-----
c input/binary/cnf_noALO/12x12_122.cnf
s SATISFIABLE
c process-time: 0.03 seconds
-----
c input/binary/cnf_noALO/12x12_123.cnf
s SATISFIABLE
c process-time: 0.01 seconds
-----
c input/binary/cnf_noALO/12x12_124.cnf
s SATISFIABLE
c process-time: 0.04 seconds
-----
c input/binary/cnf_noALO/12x12_130.cnf
s SATISFIABLE
c process-time: 0.02 seconds
-----
c input/binary/cnf_noALO/12x12_131.cnf
s SATISFIABLE
c process-time: 0.10 seconds
-----
c input/binary/cnf_noALO/12x12_132.cnf
s SATISFIABLE
c process-time: 0.03 seconds
-----
c input/binary/cnf_noALO/12x12_133.cnf
s SATISFIABLE
c process-time: 0.01 seconds
-----
c input/binary/cnf_noALO/12x12_134.cnf
s SATISFIABLE
c process-time: 0.02 seconds
-----
c input/binary/cnf_noALO/12x12_135.cnf
s SATISFIABLE
c process-time: 0.02 seconds
-----
c input/binary/cnf_noALO/12x12_136.cnf
s SATISFIABLE
c process-time: 0.04 seconds
-----
c input/binary/cnf_noALO/12x12_137.cnf
s SATISFIABLE
c process-time: 0.03 seconds
-----
c input/binary/cnf_noALO/12x12_138.cnf
s SATISFIABLE
c process-time: 0.01 seconds
-----
c input/binary/cnf_noALO/12x12_139.cnf
s SATISFIABLE
c process-time: 0.05 seconds
-----
c input/binary/cnf_noALO/12x12_140.cnf
s SATISFIABLE
c process-time: 0.03 seconds
-----
c input/binary/cnf_noALO/12x12_141.cnf
s SATISFIABLE
c process-time: 0.01 seconds
-----
c input/binary/cnf_noALO/12x12_142.cnf
s SATISFIABLE
c process-time: 0.02 seconds
-----
c input/binary/cnf_noALO/12x12_143.cnf
s SATISFIABLE
c process-time: 0.01 seconds
-----
c input/binary/cnf_noALO/12x12_144.cnf
s SATISFIABLE
c process-time: 0.02 seconds
-----
c input/binary/cnf_noALO/12x12_145.cnf
s SATISFIABLE
c process-time: 0.03 seconds
-----
c input/binary/cnf_noALO/12x15_39.cnf
s SATISFIABLE
c process-time: 0.02 seconds
-----
c input/binary/cnf_noALO/12x15_43.cnf
s SATISFIABLE
c process-time: 0.16 seconds
-----
c input/binary/cnf_noALO/12x15_45.cnf
s SATISFIABLE
c process-time: 1s 0.92 seconds
-----
c input/binary/cnf_noALO/12x15_46.cnf
s SATISFIABLE
c process-time: 0.11 seconds
-----
c input/binary/cnf_noALO/12x23_210.cnf
s SATISFIABLE
c process-time: 0.14 seconds
-----
c input/binary/cnf_noALO/13x13_120.cnf
s SATISFIABLE
c process-time: 0.03 seconds
-----
c input/binary/cnf_noALO/13x13_121.cnf
s SATISFIABLE
c process-time: 0.05 seconds
-----
c input/binary/cnf_noALO/13x13_122.cnf
s SATISFIABLE
c process-time: 2s 1.53 seconds
-----
c input/binary/cnf_noALO/13x13_123.cnf
s SATISFIABLE
c process-time: 0.05 seconds
-----
c input/binary/cnf_noALO/13x13_124.cnf
s SATISFIABLE
c process-time: 0.09 seconds
-----
c input/binary/cnf_noALO/13x13_130.cnf
s SATISFIABLE
c process-time: 1s 0.58 seconds
-----
c input/binary/cnf_noALO/13x13_131.cnf
s SATISFIABLE
c process-time: 0.03 seconds
-----
c input/binary/cnf_noALO/13x13_132.cnf
s SATISFIABLE
c process-time: 0.13 seconds
-----
c input/binary/cnf_noALO/13x13_133.cnf
s SATISFIABLE
c process-time: 0.42 seconds
-----
c input/binary/cnf_noALO/13x13_134.cnf
s SATISFIABLE
c process-time: 4s 3.73 seconds
-----
c input/binary/cnf_noALO/13x13_135.cnf
s SATISFIABLE
c process-time: 0.32 seconds
-----
c input/binary/cnf_noALO/13x13_136.cnf
s SATISFIABLE
c process-time: 0.26 seconds
-----
c input/binary/cnf_noALO/13x13_137.cnf
s SATISFIABLE
c process-time: 0.15 seconds
-----
c input/binary/cnf_noALO/13x13_138.cnf
s SATISFIABLE
c process-time: 0.03 seconds
-----
c input/binary/cnf_noALO/13x13_139.cnf
s SATISFIABLE
c process-time: 0.07 seconds
-----
c input/binary/cnf_noALO/13x13_140.cnf
s SATISFIABLE
c process-time: 0.02 seconds
-----
c input/binary/cnf_noALO/13x13_141.cnf
s SATISFIABLE
c process-time: 0.02 seconds
-----
c input/binary/cnf_noALO/13x13_142.cnf
s SATISFIABLE
c process-time: 0.37 seconds
-----
c input/binary/cnf_noALO/13x13_143.cnf
s SATISFIABLE
c process-time: 0.22 seconds
-----
c input/binary/cnf_noALO/13x13_144.cnf
s SATISFIABLE
c process-time: 0.02 seconds
-----
c input/binary/cnf_noALO/13x13_145.cnf
s SATISFIABLE
c process-time: 0.05 seconds
-----
c input/binary/cnf_noALO/14x14_120.cnf
s SATISFIABLE
c process-time: 1s 0.79 seconds
-----
c input/binary/cnf_noALO/14x14_121.cnf
s SATISFIABLE
c process-time: 0.05 seconds
-----
c input/binary/cnf_noALO/14x14_122.cnf
s SATISFIABLE
c process-time: 0.21 seconds
-----
c input/binary/cnf_noALO/14x14_123.cnf
s SATISFIABLE
c process-time: 0.34 seconds
-----
c input/binary/cnf_noALO/14x14_124.cnf
s SATISFIABLE
c process-time: 0.19 seconds
-----
c input/binary/cnf_noALO/14x14_130.cnf
s SATISFIABLE
c process-time: 0.05 seconds
-----
c input/binary/cnf_noALO/14x14_131.cnf
s SATISFIABLE
c process-time: 0.03 seconds
-----
c input/binary/cnf_noALO/14x14_132.cnf
s SATISFIABLE
c process-time: 0.05 seconds
-----
c input/binary/cnf_noALO/14x14_133.cnf
s SATISFIABLE
c process-time: 0.08 seconds
-----
c input/binary/cnf_noALO/14x14_134.cnf
s SATISFIABLE
c process-time: 2s 1.53 seconds
-----
c input/binary/cnf_noALO/14x14_135.cnf
s SATISFIABLE
c process-time: 0.04 seconds
-----
c input/binary/cnf_noALO/14x14_136.cnf
s SATISFIABLE
c process-time: 0.47 seconds
-----
c input/binary/cnf_noALO/14x14_137.cnf
s SATISFIABLE
c process-time: 0.05 seconds
-----
c input/binary/cnf_noALO/14x14_138.cnf
s SATISFIABLE
c process-time: 0.09 seconds
-----
c input/binary/cnf_noALO/14x14_139.cnf
s SATISFIABLE
c process-time: 1s 0.64 seconds
-----
c input/binary/cnf_noALO/14x14_140.cnf
s SATISFIABLE
c process-time: 0.13 seconds
-----
c input/binary/cnf_noALO/14x14_141.cnf
s SATISFIABLE
c process-time: 0.24 seconds
-----
c input/binary/cnf_noALO/14x14_142.cnf
s SATISFIABLE
c process-time: 0.08 seconds
-----
c input/binary/cnf_noALO/14x14_143.cnf
s SATISFIABLE
c process-time: 0.22 seconds
-----
c input/binary/cnf_noALO/14x14_144.cnf
s SATISFIABLE
c process-time: 0.12 seconds
-----
c input/binary/cnf_noALO/14x14_145.cnf
s SATISFIABLE
c process-time: 0.07 seconds
-----
c input/binary/cnf_noALO/14x24_105.cnf
s SATISFIABLE
c process-time: 8s 8.24 seconds
-----
c input/binary/cnf_noALO/14x24_110.cnf
s SATISFIABLE
c process-time: 5s 4.90 seconds
-----
c input/binary/cnf_noALO/14x24_113.cnf
s SATISFIABLE
c process-time: 1s 1.37 seconds
-----
c input/binary/cnf_noALO/14x24_117.cnf
s SATISFIABLE
c process-time: 5s 5.24 seconds
-----
c input/binary/cnf_noALO/14x24_129.cnf
s SATISFIABLE
c process-time: 1m 28s 87.54 seconds
-----
c input/binary/cnf_noALO/14x24_139.cnf
s SATISFIABLE
c process-time: 22s 22.44 seconds
-----
c input/binary/cnf_noALO/14x24_147.cnf
s SATISFIABLE
c process-time: 4s 3.99 seconds
-----
c input/binary/cnf_noALO/14x24_148.cnf
s SATISFIABLE
c process-time: 42s 42.29 seconds
-----
c input/binary/cnf_noALO/14x24_157.cnf
s SATISFIABLE
c process-time: 1s 1.24 seconds
-----
c input/binary/cnf_noALO/14x24_158.cnf
s SATISFIABLE
c process-time: 13s 13.30 seconds
-----
c input/binary/cnf_noALO/14x24_169.cnf
s SATISFIABLE
c process-time: 1m 28s 87.79 seconds
-----
c input/binary/cnf_noALO/14x24_179.cnf
s SATISFIABLE
c process-time: 21s 21.48 seconds
-----
c input/binary/cnf_noALO/14x24_188.cnf
s SATISFIABLE
c process-time: 7s 7.48 seconds
-----
c input/binary/cnf_noALO/14x24_189.cnf
s SATISFIABLE
c process-time: 3s 2.71 seconds
-----
c input/binary/cnf_noALO/14x24_190.cnf
s SATISFIABLE
c process-time: 24s 24.18 seconds
-----
c input/binary/cnf_noALO/14x24_199.cnf
s SATISFIABLE
c process-time: 1s 0.85 seconds
-----
c input/binary/cnf_noALO/14x24_200.cnf
s SATISFIABLE
c process-time: 10m 48s 648.06 seconds
-----
c input/binary/cnf_noALO/14x24_208.cnf
s SATISFIABLE
c process-time: 10s 10.11 seconds
-----
c input/binary/cnf_noALO/14x24_209.cnf
s SATISFIABLE
c process-time: 16s 15.55 seconds
-----
c input/binary/cnf_noALO/14x24_218.cnf
s SATISFIABLE
c process-time: 20s 19.58 seconds
-----
c input/binary/cnf_noALO/14x24_219.cnf
s SATISFIABLE
c process-time: 36s 36.42 seconds
-----
c input/binary/cnf_noALO/14x24_418.cnf
s SATISFIABLE
c process-time: 20s 20.40 seconds
-----
c input/binary/cnf_noALO/14x24_419.cnf
s SATISFIABLE
c process-time: 3s 2.65 seconds
-----
c input/binary/cnf_noALO/14x24_420.cnf
s SATISFIABLE
c process-time: 57s 57.41 seconds
-----
c input/binary/cnf_noALO/15x15_120.cnf
s SATISFIABLE
c process-time: 1s 0.99 seconds
-----
c input/binary/cnf_noALO/15x15_121.cnf
s SATISFIABLE
c process-time: 0.29 seconds
-----
c input/binary/cnf_noALO/15x15_122.cnf
s SATISFIABLE
c process-time: 0.39 seconds
-----
c input/binary/cnf_noALO/15x15_123.cnf
s SATISFIABLE
c process-time: 0.26 seconds
-----
c input/binary/cnf_noALO/15x15_124.cnf
s SATISFIABLE
c process-time: 3s 2.77 seconds
-----
c input/binary/cnf_noALO/15x15_130.cnf
s SATISFIABLE
c process-time: 0.19 seconds
-----
c input/binary/cnf_noALO/15x15_131.cnf
s SATISFIABLE
c process-time: 0.45 seconds
-----
c input/binary/cnf_noALO/15x15_132.cnf
s SATISFIABLE
c process-time: 0.30 seconds
-----
c input/binary/cnf_noALO/15x15_133.cnf
s SATISFIABLE
c process-time: 1s 1.20 seconds
-----
c input/binary/cnf_noALO/15x15_134.cnf
s SATISFIABLE
c process-time: 1s 0.62 seconds
-----
c input/binary/cnf_noALO/15x15_135.cnf
s SATISFIABLE
c process-time: 0.30 seconds
-----
c input/binary/cnf_noALO/15x15_136.cnf
s SATISFIABLE
c process-time: 0.31 seconds
-----
c input/binary/cnf_noALO/15x15_137.cnf
s SATISFIABLE
c process-time: 1s 0.80 seconds
-----
c input/binary/cnf_noALO/15x15_138.cnf
s SATISFIABLE
c process-time: 1s 0.57 seconds
-----
c input/binary/cnf_noALO/15x15_139.cnf
s SATISFIABLE
c process-time: 0.12 seconds
-----
c input/binary/cnf_noALO/15x15_140.cnf
s SATISFIABLE
c process-time: 0.11 seconds
-----
c input/binary/cnf_noALO/15x15_141.cnf
s SATISFIABLE
c process-time: 2s 1.56 seconds
-----
c input/binary/cnf_noALO/15x15_142.cnf
s SATISFIABLE
c process-time: 1s 1.14 seconds
-----
c input/binary/cnf_noALO/15x15_143.cnf
s SATISFIABLE
c process-time: 0.23 seconds
-----
c input/binary/cnf_noALO/15x15_144.cnf
s SATISFIABLE
c process-time: 2s 1.87 seconds
-----
c input/binary/cnf_noALO/15x15_145.cnf
s SATISFIABLE
c process-time: 0.37 seconds
-----
c input/binary/cnf_noALO/15x20_307.cnf
s SATISFIABLE
c process-time: 18m 58s 1138.48 seconds
-----
c input/binary/cnf_noALO/15x20_308.cnf
s SATISFIABLE
c process-time: 26s 25.70 seconds
-----
c input/binary/cnf_noALO/15x20_309.cnf
c process-time: 29m 59s 1798.82 seconds
UNKNOWN
-----
c input/binary/cnf_noALO/15x20_310.cnf
s SATISFIABLE
c process-time: 2m 2s 122.36 seconds
-----
c input/binary/cnf_noALO/15x20_317.cnf
s SATISFIABLE
c process-time: 4s 4.48 seconds
-----
c input/binary/cnf_noALO/15x20_318.cnf
s SATISFIABLE
c process-time: 35s 35.19 seconds
-----
c input/binary/cnf_noALO/15x20_319.cnf
s SATISFIABLE
c process-time: 26m 57s 1616.81 seconds
-----
c input/binary/cnf_noALO/15x20_320.cnf
s SATISFIABLE
c process-time: 2m 25s 145.39 seconds
-----
c input/binary/cnf_noALO/17x17_100.cnf
s SATISFIABLE
c process-time: 13s 12.60 seconds
-----
c input/binary/cnf_noALO/17x17_104.cnf
s SATISFIABLE
c process-time: 2s 1.78 seconds
-----
c input/binary/cnf_noALO/17x17_109.cnf
s SATISFIABLE
c process-time: 3s 3.32 seconds
-----
c input/binary/cnf_noALO/17x17_112.cnf
s SATISFIABLE
c process-time: 0.27 seconds
-----
c input/binary/cnf_noALO/17x17_116.cnf
s SATISFIABLE
c process-time: 1s 0.64 seconds
-----
c input/binary/cnf_noALO/17x17_120.cnf
s SATISFIABLE
c process-time: 21s 20.56 seconds
-----
c input/binary/cnf_noALO/17x17_128.cnf
s SATISFIABLE
c process-time: 5s 4.98 seconds
-----
c input/binary/cnf_noALO/17x17_136.cnf
s SATISFIABLE
c process-time: 0.25 seconds
-----
c input/binary/cnf_noALO/17x17_138.cnf
s SATISFIABLE
c process-time: 4s 3.53 seconds
-----
c input/binary/cnf_noALO/17x17_165.cnf
s SATISFIABLE
c process-time: 3s 3.00 seconds
-----
c input/binary/cnf_noALO/17x17_166.cnf
s SATISFIABLE
c process-time: 49s 49.12 seconds
-----
c input/binary/cnf_noALO/17x17_167.cnf
s SATISFIABLE
c process-time: 0.10 seconds
-----
c input/binary/cnf_noALO/17x17_168.cnf
s SATISFIABLE
c process-time: 0.08 seconds
-----
c input/binary/cnf_noALO/17x17_175.cnf
s SATISFIABLE
c process-time: 0.22 seconds
-----
c input/binary/cnf_noALO/17x17_176.cnf
s SATISFIABLE
c process-time: 2m 36s 155.74 seconds
-----
c input/binary/cnf_noALO/17x17_177.cnf
s SATISFIABLE
c process-time: 1s 0.81 seconds
-----
c input/binary/cnf_noALO/17x17_178.cnf
s SATISFIABLE
c process-time: 0.29 seconds
-----
c input/binary/cnf_noALO/17x17_187.cnf
s SATISFIABLE
c process-time: 2s 2.26 seconds
-----
c input/binary/cnf_noALO/17x17_188.cnf
s SATISFIABLE
c process-time: 2s 1.97 seconds
-----
c input/binary/cnf_noALO/17x17_197.cnf
s SATISFIABLE
c process-time: 8s 7.63 seconds
-----
c input/binary/cnf_noALO/17x17_198.cnf
s SATISFIABLE
c process-time: 1s 0.84 seconds
-----
c input/binary/cnf_noALO/17x17_230.cnf
s SATISFIABLE
c process-time: 2s 1.76 seconds
-----
c input/binary/cnf_noALO/17x17_240.cnf
s SATISFIABLE
c process-time: 3s 3.24 seconds
-----
c input/binary/cnf_noALO/17x17_250.cnf
s SATISFIABLE
c process-time: 0.16 seconds
-----
c input/binary/cnf_noALO/17x17_260.cnf
s SATISFIABLE
c process-time: 0.19 seconds
-----
c input/binary/cnf_noALO/17x17_270.cnf
s SATISFIABLE
c process-time: 0.36 seconds
-----
c input/binary/cnf_noALO/17x17_429.cnf
s SATISFIABLE
c process-time: 0.06 seconds
-----
c input/binary/cnf_noALO/17x17_439.cnf
s SATISFIABLE
c process-time: 30s 30.03 seconds
-----
c input/binary/cnf_noALO/17x17_449.cnf
s SATISFIABLE
c process-time: 7s 6.98 seconds
-----
c input/binary/cnf_noALO/20x20_430.cnf
s SATISFIABLE
c process-time: 54s 53.57 seconds
-----
c input/binary/cnf_noALO/20x20_440.cnf
c process-time: 29m 59s 1798.54 seconds
UNKNOWN
-----
c input/binary/cnf_noALO/20x20_450.cnf
s SATISFIABLE
c process-time: 14m 31s 871.02 seconds
-----
c input/binary/cnf_noALO/20x36_106.cnf
s SATISFIABLE
c process-time: 6m 57s 416.91 seconds
-----
c input/binary/cnf_noALO/20x36_114.cnf
s SATISFIABLE
c process-time: 17m 17s 1036.88 seconds
-----
c input/binary/cnf_noALO/20x36_118.cnf
c process-time: 29m 59s 1798.76 seconds
UNKNOWN
-----
c input/binary/cnf_noALO/20x36_130.cnf
c process-time: 29m 58s 1798.08 seconds
UNKNOWN
-----
c input/binary/cnf_noALO/20x36_140.cnf
c process-time: 29m 59s 1798.62 seconds
UNKNOWN
-----
c input/binary/cnf_noALO/20x36_149.cnf
c process-time: 29m 59s 1798.78 seconds
UNKNOWN
-----
c input/binary/cnf_noALO/20x36_150.cnf
c process-time: 29m 59s 1798.70 seconds
UNKNOWN
-----
c input/binary/cnf_noALO/20x36_159.cnf
c process-time: 29m 59s 1798.52 seconds
UNKNOWN
-----
c input/binary/cnf_noALO/20x36_160.cnf
c process-time: 29m 59s 1799.05 seconds
UNKNOWN
-----
c input/binary/cnf_noALO/20x36_170.cnf
c process-time: 29m 59s 1798.73 seconds
UNKNOWN
-----
c input/binary/cnf_noALO/20x36_180.cnf
c process-time: 29m 59s 1798.62 seconds
UNKNOWN
-----
c input/binary/cnf_noALO/20x36_210.cnf
c process-time: 29m 58s 1798.43 seconds
UNKNOWN
-----
c input/binary/cnf_noALO/20x36_220.cnf
c process-time: 29m 58s 1798.24 seconds
UNKNOWN
-----
c input/binary/cnf_noALO/25x25_60.cnf
s SATISFIABLE
c process-time: 32s 32.13 seconds
-----
c input/binary/cnf_noALO/25x25_66.cnf
s SATISFIABLE
c process-time: 8m 3s 483.19 seconds
-----
c input/binary/cnf_noALO/25x25_72.cnf
c process-time: 29m 59s 1798.78 seconds
UNKNOWN
-----
c input/binary/cnf_noALO/25x25_78.cnf
c process-time: 29m 59s 1798.79 seconds
UNKNOWN
-----
c input/binary/cnf_noALO/25x42_110.cnf
s SATISFIABLE
c process-time: 1m 52s 111.88 seconds
-----
c input/binary/cnf_noALO/35x48_190.cnf
c process-time: 29m 59s 1798.78 seconds
UNKNOWN
-----
c input/binary/cnf_noALO/6x6_120.cnf
s SATISFIABLE
c process-time: 0.00 seconds
-----
c input/binary/cnf_noALO/6x6_121.cnf
s SATISFIABLE
c process-time: 0.00 seconds
-----
c input/binary/cnf_noALO/6x6_122.cnf
s SATISFIABLE
c process-time: 0.00 seconds
-----
c input/binary/cnf_noALO/6x6_123.cnf
s SATISFIABLE
c process-time: 0.00 seconds
-----
c input/binary/cnf_noALO/6x6_124.cnf
s SATISFIABLE
c process-time: 0.00 seconds
-----
c input/binary/cnf_noALO/6x6_125.cnf
s SATISFIABLE
c process-time: 0.00 seconds
-----
c input/binary/cnf_noALO/6x6_130.cnf
s SATISFIABLE
c process-time: 0.01 seconds
-----
c input/binary/cnf_noALO/6x6_131.cnf
s SATISFIABLE
c process-time: 0.00 seconds
-----
c input/binary/cnf_noALO/6x6_132.cnf
s SATISFIABLE
c process-time: 0.00 seconds
-----
c input/binary/cnf_noALO/6x6_133.cnf
s SATISFIABLE
c process-time: 0.00 seconds
-----
c input/binary/cnf_noALO/6x6_134.cnf
s SATISFIABLE
c process-time: 0.00 seconds
-----
c input/binary/cnf_noALO/6x6_135.cnf
s SATISFIABLE
c process-time: 0.00 seconds
-----
c input/binary/cnf_noALO/6x6_136.cnf
s SATISFIABLE
c process-time: 0.00 seconds
-----
c input/binary/cnf_noALO/6x6_137.cnf
s SATISFIABLE
c process-time: 0.00 seconds
-----
c input/binary/cnf_noALO/6x6_138.cnf
s SATISFIABLE
c process-time: 0.00 seconds
-----
c input/binary/cnf_noALO/6x6_139.cnf
s SATISFIABLE
c process-time: 0.00 seconds
-----
c input/binary/cnf_noALO/6x6_140.cnf
s SATISFIABLE
c process-time: 0.00 seconds
-----
c input/binary/cnf_noALO/6x6_141.cnf
s SATISFIABLE
c process-time: 0.00 seconds
-----
c input/binary/cnf_noALO/6x6_142.cnf
s SATISFIABLE
c process-time: 0.01 seconds
-----
c input/binary/cnf_noALO/6x6_143.cnf
s SATISFIABLE
c process-time: 0.00 seconds
-----
c input/binary/cnf_noALO/6x6_144.cnf
s SATISFIABLE
c process-time: 0.00 seconds
-----
c input/binary/cnf_noALO/6x6_145.cnf
s SATISFIABLE
c process-time: 0.00 seconds
-----
c input/binary/cnf_noALO/7x7_120.cnf
s SATISFIABLE
c process-time: 0.00 seconds
-----
c input/binary/cnf_noALO/7x7_121.cnf
s SATISFIABLE
c process-time: 0.00 seconds
-----
c input/binary/cnf_noALO/7x7_122.cnf
s SATISFIABLE
c process-time: 0.00 seconds
-----
c input/binary/cnf_noALO/7x7_123.cnf
s SATISFIABLE
c process-time: 0.00 seconds
-----
c input/binary/cnf_noALO/7x7_124.cnf
s SATISFIABLE
c process-time: 0.00 seconds
-----
c input/binary/cnf_noALO/7x7_130.cnf
s SATISFIABLE
c process-time: 0.00 seconds
-----
c input/binary/cnf_noALO/7x7_131.cnf
s SATISFIABLE
c process-time: 0.00 seconds
-----
c input/binary/cnf_noALO/7x7_132.cnf
s SATISFIABLE
c process-time: 0.00 seconds
-----
c input/binary/cnf_noALO/7x7_133.cnf
s SATISFIABLE
c process-time: 0.00 seconds
-----
c input/binary/cnf_noALO/7x7_134.cnf
s SATISFIABLE
c process-time: 0.00 seconds
-----
c input/binary/cnf_noALO/7x7_135.cnf
s SATISFIABLE
c process-time: 0.00 seconds
-----
c input/binary/cnf_noALO/7x7_136.cnf
s SATISFIABLE
c process-time: 0.00 seconds
-----
c input/binary/cnf_noALO/7x7_137.cnf
s SATISFIABLE
c process-time: 0.00 seconds
-----
c input/binary/cnf_noALO/7x7_138.cnf
s SATISFIABLE
c process-time: 0.00 seconds
-----
c input/binary/cnf_noALO/7x7_139.cnf
s SATISFIABLE
c process-time: 0.00 seconds
-----
c input/binary/cnf_noALO/7x7_140.cnf
s SATISFIABLE
c process-time: 0.00 seconds
-----
c input/binary/cnf_noALO/7x7_141.cnf
s SATISFIABLE
c process-time: 0.00 seconds
-----
c input/binary/cnf_noALO/7x7_142.cnf
s SATISFIABLE
c process-time: 0.00 seconds
-----
c input/binary/cnf_noALO/7x7_143.cnf
s SATISFIABLE
c process-time: 0.00 seconds
-----
c input/binary/cnf_noALO/7x7_144.cnf
s SATISFIABLE
c process-time: 0.00 seconds
-----
c input/binary/cnf_noALO/7x7_145.cnf
s SATISFIABLE
c process-time: 0.00 seconds
-----
c input/binary/cnf_noALO/8x8_120.cnf
s SATISFIABLE
c process-time: 0.00 seconds
-----
c input/binary/cnf_noALO/8x8_121.cnf
s SATISFIABLE
c process-time: 0.00 seconds
-----
c input/binary/cnf_noALO/8x8_122.cnf
s SATISFIABLE
c process-time: 0.00 seconds
-----
c input/binary/cnf_noALO/8x8_123.cnf
s SATISFIABLE
c process-time: 0.00 seconds
-----
c input/binary/cnf_noALO/8x8_124.cnf
s SATISFIABLE
c process-time: 0.01 seconds
-----
c input/binary/cnf_noALO/8x8_130.cnf
s SATISFIABLE
c process-time: 0.01 seconds
-----
c input/binary/cnf_noALO/8x8_131.cnf
s SATISFIABLE
c process-time: 0.00 seconds
-----
c input/binary/cnf_noALO/8x8_132.cnf
s SATISFIABLE
c process-time: 0.00 seconds
-----
c input/binary/cnf_noALO/8x8_133.cnf
s SATISFIABLE
c process-time: 0.00 seconds
-----
c input/binary/cnf_noALO/8x8_134.cnf
s SATISFIABLE
c process-time: 0.00 seconds
-----
c input/binary/cnf_noALO/8x8_135.cnf
s SATISFIABLE
c process-time: 0.00 seconds
-----
c input/binary/cnf_noALO/8x8_136.cnf
s SATISFIABLE
c process-time: 0.00 seconds
-----
c input/binary/cnf_noALO/8x8_137.cnf
s SATISFIABLE
c process-time: 0.00 seconds
-----
c input/binary/cnf_noALO/8x8_138.cnf
s SATISFIABLE
c process-time: 0.00 seconds
-----
c input/binary/cnf_noALO/8x8_139.cnf
s SATISFIABLE
c process-time: 0.00 seconds
-----
c input/binary/cnf_noALO/8x8_140.cnf
s SATISFIABLE
c process-time: 0.00 seconds
-----
c input/binary/cnf_noALO/8x8_141.cnf
s SATISFIABLE
c process-time: 0.01 seconds
-----
c input/binary/cnf_noALO/8x8_142.cnf
s SATISFIABLE
c process-time: 0.00 seconds
-----
c input/binary/cnf_noALO/8x8_143.cnf
s SATISFIABLE
c process-time: 0.00 seconds
-----
c input/binary/cnf_noALO/8x8_144.cnf
s SATISFIABLE
c process-time: 0.00 seconds
-----
c input/binary/cnf_noALO/8x8_145.cnf
s SATISFIABLE
c process-time: 0.00 seconds
-----
c input/binary/cnf_noALO/9x9_120.cnf
s SATISFIABLE
c process-time: 0.01 seconds
-----
c input/binary/cnf_noALO/9x9_121.cnf
s SATISFIABLE
c process-time: 0.01 seconds
-----
c input/binary/cnf_noALO/9x9_122.cnf
s SATISFIABLE
c process-time: 0.01 seconds
-----
c input/binary/cnf_noALO/9x9_123.cnf
s SATISFIABLE
c process-time: 0.01 seconds
-----
c input/binary/cnf_noALO/9x9_124.cnf
s SATISFIABLE
c process-time: 0.01 seconds
-----
c input/binary/cnf_noALO/9x9_130.cnf
s SATISFIABLE
c process-time: 0.01 seconds
-----
c input/binary/cnf_noALO/9x9_131.cnf
s SATISFIABLE
c process-time: 0.01 seconds
-----
c input/binary/cnf_noALO/9x9_132.cnf
s SATISFIABLE
c process-time: 0.01 seconds
-----
c input/binary/cnf_noALO/9x9_133.cnf
s SATISFIABLE
c process-time: 0.01 seconds
-----
c input/binary/cnf_noALO/9x9_134.cnf
s SATISFIABLE
c process-time: 0.00 seconds
-----
c input/binary/cnf_noALO/9x9_135.cnf
s SATISFIABLE
c process-time: 0.00 seconds
-----
c input/binary/cnf_noALO/9x9_136.cnf
s SATISFIABLE
c process-time: 0.01 seconds
-----
c input/binary/cnf_noALO/9x9_137.cnf
s SATISFIABLE
c process-time: 0.01 seconds
-----
c input/binary/cnf_noALO/9x9_138.cnf
s SATISFIABLE
c process-time: 0.00 seconds
-----
c input/binary/cnf_noALO/9x9_139.cnf
s SATISFIABLE
c process-time: 0.01 seconds
-----
c input/binary/cnf_noALO/9x9_140.cnf
s SATISFIABLE
c process-time: 0.00 seconds
-----
c input/binary/cnf_noALO/9x9_141.cnf
s SATISFIABLE
c process-time: 0.00 seconds
-----
c input/binary/cnf_noALO/9x9_142.cnf
s SATISFIABLE
c process-time: 0.00 seconds
-----
c input/binary/cnf_noALO/9x9_143.cnf
s SATISFIABLE
c process-time: 0.00 seconds
-----
c input/binary/cnf_noALO/9x9_144.cnf
s SATISFIABLE
c process-time: 0.01 seconds
-----
c input/binary/cnf_noALO/9x9_145.cnf
s SATISFIABLE
c process-time: 0.01 seconds
-----
UNKNOWN
-----

